# Solution for model r3_t27_m5_6
# Finished Task: 26 / 27
# Makespan: 901.0, Total Distance: 975.0, Total Time: 1.9713
# R O S F
0 0 27 0.0 0.0
1 1 7 0.0 0.0
2 2 8 0.0 0.0
3 -1 -1 -1.0 -1.0
4 0 24 804.0 838.0
5 1 12 446.0 471.0
6 1 13 719.0 741.0
7 1 14 207.0 241.0
8 2 20 170.0 198.0
9 2 29 532.0 564.0
10 2 28 733.0 764.0
11 1 6 698.0 719.0
12 1 19 525.0 562.0
13 1 17 764.0 795.0
14 1 15 309.0 329.0
15 1 5 409.0 436.0
16 0 22 459.0 498.0
17 1 -1 824.0 855.0
18 2 9 477.0 504.0
19 1 26 592.0 631.0
20 2 18 406.0 435.0
21 0 4 751.0 787.0
22 0 25 536.0 563.0
23 2 -1 872.0 901.0
24 0 -1 852.0 881.0
25 0 21 719.0 751.0
26 1 11 659.0 698.0
27 0 16 402.0 441.0
28 2 23 840.0 872.0
29 2 10 652.0 689.0
